114
0 47 7 10 66 3 108 82 43 75 
36 50 74 5 45 16 79 27 37 70 
80 30 111 23 42 86 112 17 97 29 
77 89 48 53 113 34 109 98 95 83 
61 68 12 15 2 25 64 24 40 4 
81 44 84 99 32 8 69 103 94 107 
55 106 73 65 101 21 92 110 72 20 
33 46 39 13 35 62 6 41 58 60 
31 9 57 105 54 85 1 19 11 88 
67 90 28 56 38 18 96 76 49 52 
104 87 26 51 71 63 22 59 91 14 
100 78 93 102 
